
Gurobi 10.0.3 (linux64, gurobi_cl) logging started Thu Nov  2 11:46:00 2023

Set parameter Username
Set parameter TimeLimit to value 3600
Set parameter LogFile to value "RCPSP_909.log"
Set parameter Threads to value 32
Academic license - for non-commercial use only - expires 2024-10-30
Using license file /home/jrivera6/gurobi-licenses/v1003/compute-0-35/gurobi.lic

Gurobi Optimizer version 10.0.3 build v10.0.3rc0 (linux64)
Copyright (c) 2023, Gurobi Optimization, LLC

Read MPS format model from file RCPSP_909.mps
Reading time = 0.05 seconds
RCPSP_909: 19662 rows, 7750 columns, 68337 nonzeros

CPU model: Intel(R) Xeon(R) Gold 6130 CPU @ 2.10GHz, instruction set [SSE2|AVX|AVX2|AVX512]
Thread count: 32 physical cores, 32 logical processors, using up to 32 threads

Optimize a model with 19662 rows, 7750 columns and 68337 nonzeros
Model fingerprint: 0x313b3a23
Variable types: 62 continuous, 7688 integer (7688 binary)
Coefficient statistics:
  Matrix range     [1e+00, 3e+02]
  Objective range  [1e+00, 1e+00]
  Bounds range     [1e+00, 1e+00]
  RHS range        [1e+00, 3e+02]
Presolve removed 9505 rows and 3652 columns
Presolve time: 4.99s
Presolved: 10157 rows, 4098 columns, 36199 nonzeros
Variable types: 61 continuous, 4037 integer (4037 binary)

Root simplex log...

Iteration    Objective       Primal Inf.    Dual Inf.      Time
       0    7.0000000e+01   1.566400e+04   0.000000e+00      5s
    1291    7.0000000e+01   0.000000e+00   0.000000e+00      5s

Root relaxation: objective 7.000000e+01, 1291 iterations, 0.02 seconds (0.01 work units)

    Nodes    |    Current Node    |     Objective Bounds      |     Work
 Expl Unexpl |  Obj  Depth IntInf | Incumbent    BestBd   Gap | It/Node Time

     0     0   70.00000    0    2          -   70.00000      -     -    5s
H    0     0                      72.0000000   70.00000  2.78%     -    8s
     0     0   70.00000    0    4   72.00000   70.00000  2.78%     -    8s
     0     0   70.00000    0    6   72.00000   70.00000  2.78%     -   13s
H    0     0                      71.0000000   70.00000  1.41%     -   15s
     0     0   70.00000    0   26   71.00000   70.00000  1.41%     -   16s
     0     0   70.00000    0    4   71.00000   70.00000  1.41%     -   21s
H    0     0                      70.0000000   70.00000  0.00%     -   21s
     0     0   70.00000    0    4   70.00000   70.00000  0.00%     -   21s

Cutting planes:
  Gomory: 2
  Cover: 31
  Implied bound: 1
  Clique: 24
  MIR: 3
  RLT: 10
  Relax-and-lift: 15

Explored 1 nodes (5739 simplex iterations) in 21.97 seconds (3.92 work units)
Thread count was 32 (of 32 available processors)

Solution count 3: 70 71 72 

Optimal solution found (tolerance 1.00e-04)
Best objective 7.000000000000e+01, best bound 7.000000000000e+01, gap 0.0000%

Wrote result file 'RCPSP_909.sol'

